30
2
20037
250 220
false
0.25
11 20 22 5 28 20 50 26 23 19 37 7 32 21 2 6 46 45 9 16 19 26 30 21 30 38 42 28 25 3
38 7 20 22 6 46 50 25 39 36 12 32 23 48 7 5 7 14 25 4 47 35 5 3 22 48 16 35 13 46
75 17 82 19 70 63 59 66 82 9 59 90 4 87 97 12 16 0 13 60 31 42 100 63 5 44 49 81 43 69
0 0 0 0 0 77 0 0 0 0 0 19 75 25 43 0 0 75 0 92 0 0 0 0 0 0 0 0 0 69
0 0 0 0 60 0 0 0 23 0 0 0 6 88 0 51 0 0 0 0 0 0 55 0 0 0 0 0 0
0 67 0 28 19 0 0 0 0 0 0 28 0 0 0 12 0 0 0 0 11 92 4 0 0 71 0 0
0 76 0 0 64 92 0 0 0 40 94 96 0 0 0 0 3 0 0 0 46 27 0 0 0 0 0
0 0 27 0 0 62 0 0 66 0 0 38 0 0 0 0 0 0 0 66 0 0 40 0 0 0
0 0 0 0 0 0 0 0 0 50 0 0 0 0 20 0 0 0 0 0 0 0 34 0 43
0 70 0 0 0 0 96 18 0 0 0 0 83 0 64 0 0 0 0 0 0 0 26 0
0 0 0 0 0 0 38 0 39 0 0 0 0 0 0 0 0 0 23 0 0 0 99
0 0 0 0 92 0 0 0 0 0 0 0 0 0 13 75 0 0 0 34 0 0
0 3 2 10 57 0 0 0 0 0 23 0 54 0 60 0 0 0 0 0 0
0 37 33 74 41 0 0 0 0 0 0 96 0 0 0 0 0 100 0 66
0 0 0 0 0 0 0 0 0 0 0 0 28 0 0 0 0 0 7
0 0 0 0 0 0 36 51 0 0 0 0 0 0 0 0 0 0
0 0 0 0 0 0 0 0 53 0 0 74 0 68 0 0 0
0 17 58 0 0 0 0 0 65 0 0 72 90 46 1 0
0 0 0 0 0 56 0 0 0 0 0 0 0 0 0
0 0 0 0 0 84 56 0 0 0 82 0 37 66
0 0 0 0 44 0 48 0 0 0 0 0 0
0 0 0 0 50 0 0 12 0 0 0 0
0 0 0 0 0 0 0 0 0 8 35
0 0 0 0 0 0 0 0 0 0
0 0 0 0 0 0 0 0 0
0 78 0 0 0 0 0 0
0 0 0 88 0 0 0
0 0 64 0 0 0
0 0 0 0 0
0 0 0 0
0 0 0
0 0
0 0 0 27 0 22 0 0 0 0 0 0 0 0 0 0 0 0 0 0 0 0 0 0 0 0 0 0 0
0 0 0 0 22 0 35 0 0 0 0 0 25 22 0 0 80 0 0 0 0 0 0 0 0 0 0 67
0 0 0 0 0 40 0 0 0 0 0 0 0 0 0 0 0 0 8 0 0 0 0 0 0 0 0
0 0 0 0 0 0 0 0 0 63 0 0 93 0 99 6 64 0 0 0 30 0 0 0 61 0
0 0 0 0 0 0 0 0 0 0 0 0 0 42 0 0 0 0 68 0 0 0 0 0 0
0 0 0 2 86 0 0 0 22 0 65 60 0 0 22 0 0 0 14 41 0 0 31 0
0 42 54 27 51 98 0 49 68 0 0 0 0 97 94 0 0 0 0 68 0 0 0
0 43 0 0 0 0 0 0 0 0 0 0 0 95 57 0 0 60 0 0 0 0
0 0 0 0 0 0 0 0 0 72 0 0 0 0 0 0 4 0 0 0 0
0 29 0 0 0 0 0 66 36 98 0 0 0 0 1 0 0 0 0 0
0 94 0 0 71 0 0 0 0 0 0 0 68 42 0 44 0 96 0
0 0 0 0 0 95 0 0 0 0 0 89 0 0 0 0 0 0
0 0 75 0 61 89 4 33 94 0 88 0 74 0 32 0 0
0 0 0 0 73 0 0 0 0 0 0 29 0 0 0 0
0 0 72 0 0 36 0 0 0 0 73 0 0 0 0
0 0 0 0 49 0 0 0 0 0 0 0 0 0
0 0 0 44 0 0 0 0 0 0 0 0 0
0 0 0 0 0 38 2 0 0 0 0 0
0 0 0 0 0 0 0 0 0 0 12
0 20 0 0 0 0 0 0 0 0
0 0 0 15 0 0 0 0 28
0 0 0 12 15 72 0 0
0 0 0 21 0 0 0
0 0 0 0 0 0
0 0 0 39 0
0 0 0 91
0 0 0
0 0
0
0 76 0 55 76 51 37 0 0 0 0 0 0 89 88 0 83 0 0 0 0 58 0 99 0 75 0 54
0 0 57 0 0 93 0 0 0 0 0 0 0 0 0 0 0 0 0 12 0 0 0 0 0 0 0
0 82 0 0 0 35 0 0 0 0 1 0 0 0 0 0 0 0 0 0 56 0 0 0 0 0
0 0 0 0 0 14 61 69 0 48 0 0 0 0 100 0 59 0 0 0 0 6 0 0 0
0 0 0 0 0 52 0 0 0 0 0 0 25 84 0 0 0 0 88 0 0 0 0 94
0 0 0 0 0 0 0 0 0 0 0 0 0 58 0 88 0 0 0 0 0 92 0
0 0 0 0 0 69 0 85 0 0 0 0 0 0 0 0 0 14 0 0 0 73
0 90 0 0 0 0 0 92 0 0 0 0 73 0 0 0 0 0 16 0 21
0 0 0 0 0 0 0 0 0 0 0 0 0 0 0 0 0 0 0 0
0 0 0 0 0 68 34 0 0 0 0 0 49 0 0 0 0 75 0
0 0 0 0 0 0 0 0 18 0 0 0 0 0 0 0 0 0
0 11 0 3 0 93 30 0 80 0 0 0 14 0 0 54 0
0 0 0 0 33 0 0 78 0 0 0 0 28 0 0 0
0 0 77 0 60 0 0 0 95 22 0 0 16 0 0
0 0 0 50 0 0 0 0 0 0 0 92 0 0
0 0 0 0 41 84 18 0 0 0 0 37 0
0 0 0 28 0 0 0 0 48 0 0 0
0 0 0 0 0 0 10 0 0 0 0
0 0 18 49 0 0 0 0 0 0
0 11 0 0 0 0 79 0 51
0 38 0 0 0 0 0 0
0 69 0 0 0 59 0
0 0 0 30 0 31
0 48 0 0 0
0 0 0 0
0 93 0
0 28
0
0 38 57 0 0 0 0 0 0 0 0 0 0 0 0 0 64 0 0 58 0 0 0 98 0 0 0
0 0 0 0 0 0 0 85 4 76 0 67 0 24 0 0 0 0 74 0 0 0 90 0 73 0
0 0 0 0 0 0 0 0 0 0 0 0 0 0 8 80 0 0 0 0 0 0 0 68 39
0 0 0 0 0 74 82 0 0 22 0 0 0 0 51 0 35 0 0 61 0 0 0 0
0 0 0 0 0 0 0 0 0 0 64 0 0 0 0 23 0 45 0 0 70 0 21
0 0 60 0 0 34 0 0 93 0 0 31 92 31 0 0 0 8 0 0 39 65
0 0 0 0 97 0 0 61 0 58 0 8 0 0 0 0 19 0 0 0 0
0 39 0 0 0 0 0 0 0 46 0 0 0 0 0 0 0 0 48 0
0 0 0 94 0 34 0 0 0 0 0 0 0 0 43 67 0 0 0
0 0 0 0 0 0 0 9 0 14 0 0 0 73 0 85 0 0
0 0 50 89 18 34 0 0 24 0 0 0 0 0 18 81 71
0 49 0 0 44 0 0 0 0 0 0 0 28 0 0 0
0 0 68 77 0 0 91 0 0 0 0 0 0 0 88
0 34 0 98 0 0 0 0 0 0 0 0 0 0
0 75 0 0 0 0 0 0 0 0 0 0 0
0 0 0 0 0 0 0 0 0 0 0 0
0 0 0 0 0 58 0 0 0 0 0
0 0 0 0 0 0 0 0 0 0
0 0 0 0 0 81 28 0 0
0 0 0 93 73 0 0 0
0 79 0 0 0 0 53
0 0 0 0 0 24
0 45 0 0 0
0 70 0 88
0 0 0
0 0
0
0 0 0 0 0 0 0 0 0 0 0 59 0 0 90 0 0 0 0 0 0 7 0 0 0 0
0 0 0 0 0 0 0 0 3 22 0 0 0 0 0 0 0 34 0 0 65 0 75 82 0
0 0 0 0 0 0 15 0 0 0 0 85 0 0 0 0 0 93 0 0 0 0 0 0
0 0 100 0 0 0 0 0 0 0 0 0 0 0 94 0 0 0 0 0 0 65 0
0 64 0 0 0 73 0 0 0 12 51 0 0 0 0 0 0 0 7 39 20 0
0 78 0 0 90 0 29 0 0 0 0 0 27 0 0 0 0 0 0 99 0
0 0 0 0 0 0 0 0 0 0 0 56 0 0 0 93 0 0 46 39
0 0 0 0 0 0 0 0 0 0 0 0 0 0 12 63 8 0 0
0 0 0 0 0 0 17 54 0 0 0 0 0 0 0 0 0 78
0 0 87 0 0 0 0 0 0 0 0 18 0 0 53 0 0
0 0 0 89 0 64 0 0 0 10 0 0 57 0 0 26
0 0 0 0 0 0 0 0 0 15 0 17 0 89 0
0 0 0 0 0 0 0 0 93 0 77 0 72 0
0 74 0 0 0 0 0 0 0 0 0 36 0
0 0 0 60 0 0 0 92 0 0 0 0
0 0 4 0 0 0 69 0 0 0 0
0 0 0 0 0 0 0 0 0 0
0 0 0 0 0 94 0 69 0
0 0 0 0 0 0 0 0
0 0 0 0 0 39 0
0 0 0 0 0 61
0 0 0 0 0
0 0 0 0
0 0 0
0 0
0
0 0 0 0 0 0 59 0 0 52 30 0 0 0 0 28 0 0 55 0 0 100 69 54 97
0 0 0 0 0 0 31 0 0 69 0 0 61 0 44 0 0 0 0 0 0 0 80 60
0 80 7 0 0 0 0 0 0 0 0 0 0 0 0 35 52 14 0 70 0 4 0
0 0 0 0 0 0 0 0 11 0 18 55 0 0 0 0 0 0 0 0 0 93
0 0 0 0 0 0 0 0 0 0 0 0 59 39 6 0 0 0 44 7 0
0 0 0 0 0 0 0 0 0 79 59 0 0 0 61 0 0 0 0 0
0 0 0 0 0 0 94 93 0 0 100 0 0 51 0 0 0 0 0
0 85 0 0 0 0 0 0 0 0 4 0 0 0 0 0 0 0
0 0 0 80 0 0 0 0 13 0 0 0 0 36 0 21 8
0 0 0 0 0 0 0 33 0 13 0 0 0 0 0 0
0 0 4 0 0 0 0 0 0 0 0 0 0 0 0
0 46 0 98 0 0 0 53 0 0 0 51 0 35
0 74 0 0 0 0 0 0 39 0 0 0 52
0 66 0 0 0 30 0 0 0 5 58 0
0 40 51 0 0 94 0 0 87 0 26
0 0 0 0 0 0 0 0 6 0
0 0 63 0 0 0 59 0 8
0 13 0 33 0 0 0 0
0 16 10 88 0 0 0
0 95 0 0 54 33
0 0 0 0 0
0 0 0 56
0 4 0
0 52
0
0 60 83 0 0 0 21 0 0 0 0 0 0 0 0 87 0 0 0 0 100 0 0 0
0 0 0 0 5 0 0 0 13 87 0 0 0 0 0 0 0 0 0 0 0 3 5
0 0 0 0 0 0 0 0 0 0 0 31 49 0 0 0 0 0 0 0 0 0
0 38 39 0 0 0 62 0 0 98 0 0 0 0 0 0 0 0 0 66 40
0 0 23 9 0 0 0 0 0 0 0 0 0 0 0 0 25 2 0 0
0 0 0 50 69 74 25 0 0 32 3 0 0 0 96 0 0 0 99
0 0 0 0 0 0 0 50 0 0 49 0 0 0 0 0 0 0
0 0 0 0 43 92 0 0 0 0 0 0 0 0 83 0 0
0 0 17 0 0 0 0 0 0 0 63 49 16 0 0 0
0 30 0 0 63 2 0 0 69 41 0 64 0 0 0
0 0 0 0 0 0 0 0 0 37 0 0 47 0
0 0 0 53 0 0 0 0 0 0 0 0 0
0 0 0 0 73 0 85 0 0 84 0 51
0 0 0 0 90 7 58 34 0 27 0
0 0 0 0 100 0 0 0 78 0
0 0 0 0 0 0 0 0 0
0 0 0 0 0 5 0 0
0 0 0 0 8 0 0
0 0 0 37 0 0
0 0 0 26 0
0 8 0 0
0 0 75
0 62
0
0 0 92 28 0 0 0 0 0 0 0 0 47 47 0 0 0 34 0 0 0 0 0
0 0 0 0 0 0 0 0 0 0 0 0 0 0 0 0 0 0 0 45 0 27
0 0 0 0 0 60 0 0 0 0 0 70 0 0 0 0 0 0 26 0 0
0 0 0 0 5 0 8 0 0 0 24 0 65 0 0 0 0 11 0 0
0 0 0 0 0 0 0 0 0 0 0 14 60 0 0 77 17 0 78
0 0 0 0 0 0 94 0 0 0 0 14 0 0 100 0 0 0
0 0 64 0 0 0 0 91 0 0 56 0 0 48 57 0 0
0 0 0 0 0 0 0 0 9 0 81 0 0 0 0 56
0 0 0 0 0 0 0 0 0 0 0 27 0 0 0
0 0 46 0 0 53 0 0 0 68 24 0 0 0
0 0 0 0 0 0 0 0 0 0 0 0 0
0 0 0 92 38 99 0 47 25 0 56 0
0 0 0 0 0 0 0 0 0 0 0
0 56 0 0 0 0 0 0 0 9
0 0 13 0 74 0 0 0 0
0 0 0 0 0 0 0 54
0 0 0 0 0 0 0
0 0 0 0 55 0
0 0 0 10 0
0 0 0 0
0 0 39
0 0
0
0 0 0 0 16 0 52 0 0 0 0 0 0 0 0 0 0 0 0 0 0 51
0 0 0 0 0 56 0 0 0 0 0 0 0 72 0 0 94 0 0 0 0
0 0 0 0 0 0 0 0 0 0 3 0 0 0 0 0 49 0 0 0
0 61 11 0 88 0 0 0 0 0 0 0 0 0 0 84 0 0 0
0 0 0 0 35 0 29 0 0 0 0 0 0 0 0 0 99 65
0 33 0 0 0 0 0 0 0 0 0 0 0 0 49 0 59
0 0 0 0 80 0 0 0 0 59 0 0 47 76 0 97
0 0 97 0 0 0 0 88 23 0 0 0 89 0 0
0 66 0 0 40 48 0 0 0 0 0 0 80 0
0 17 0 0 33 0 0 0 0 8 0 53 0
0 4 0 0 0 0 0 13 0 0 0 0
0 0 0 0 0 0 0 0 0 81 0
0 71 0 0 0 0 0 49 4 0
0 0 0 0 0 0 0 95 62
0 0 0 0 0 0 0 0
0 0 0 0 0 0 82
0 0 0 0 0 0
0 0 33 84 0
0 15 19 0
0 0 95
0 0
0
0 21 58 0 0 0 93 43 0 0 0 0 0 0 0 0 44 0 0 0 0
0 0 0 20 0 0 0 36 0 0 80 0 0 88 40 0 0 0 0 0
0 0 0 0 52 45 25 0 0 58 0 0 0 0 0 44 0 0 0
0 0 0 0 0 13 0 76 91 0 11 50 0 0 0 0 0 4
0 0 0 69 0 0 0 0 0 0 0 61 0 0 21 0 0
0 47 0 0 0 0 7 0 0 0 0 12 44 0 0 0
0 0 0 0 0 0 0 0 23 0 57 0 82 0 0
0 0 76 0 7 0 0 89 0 0 0 0 0 0
0 0 0 55 0 0 0 0 21 0 0 0 0
0 0 0 0 0 97 0 0 56 86 0 32
0 0 0 0 0 0 0 41 0 0 0
0 0 75 0 41 0 62 0 0 0
0 38 49 0 4 5 0 0 0
0 71 0 50 0 13 0 0
0 0 0 0 0 0 0
0 84 0 0 65 0
0 0 0 0 0
0 0 0 0
0 0 0
0 0
0
0 61 0 76 0 0 19 0 0 0 0 87 51 0 0 0 0 86 87 0
0 0 0 93 0 0 0 0 0 0 0 38 0 0 75 88 0 0 33
0 0 33 13 0 0 0 53 0 52 64 0 0 0 0 0 0 30
0 0 0 0 20 0 0 0 0 0 0 0 69 0 0 0 0
0 0 0 0 0 0 0 33 0 0 0 0 0 0 0 0
0 0 0 0 0 0 0 0 0 81 90 66 1 0 28
0 0 6 0 0 0 0 0 0 0 0 35 0 0
0 0 0 0 0 0 0 67 0 0 0 0 98
0 0 0 0 0 0 29 0 76 0 0 88
0 0 0 0 0 0 0 0 65 0 0
0 21 28 7 70 24 34 60 0 0
0 0 0 82 9 0 0 0 0
0 0 16 0 0 0 0 50
0 89 9 93 0 0 0
0 0 0 0 0 0
0 0 0 0 50
0 0 0 0
0 37 65
0 0
0
0 29 0 17 0 0 0 0 0 0 0 0 0 0 0 0 0 0 0
0 10 0 0 75 0 0 0 0 0 0 0 0 0 0 0 0 18
0 0 0 92 0 0 17 0 4 42 0 0 0 0 0 2 0
0 27 0 0 0 93 0 0 0 0 0 76 0 0 0 0
0 0 0 66 0 5 0 0 0 0 0 0 0 0 0
0 0 0 76 0 0 85 0 0 0 72 0 0 0
0 73 0 0 32 0 0 0 0 0 0 0 0
0 0 27 0 0 0 0 0 0 51 22 0
0 0 0 0 0 0 0 0 0 0 0
0 0 60 18 48 0 80 84 0 0
0 0 0 0 0 0 0 0 0
0 0 0 35 23 0 0 90
0 0 0 0 0 92 0
0 0 0 58 0 77
0 0 0 0 0
0 0 0 0
0 0 0
0 2
0
0 0 0 94 0 54 0 0 0 0 10 45 0 33 0 0 0 0
0 56 0 0 0 0 25 0 0 27 0 0 0 0 0 77 45
0 0 0 70 44 81 44 0 0 0 0 0 60 0 0 0
0 0 35 0 0 0 0 0 39 0 0 0 13 21 0
0 90 46 0 0 5 0 0 84 38 0 0 0 0
0 0 0 0 0 0 0 47 0 61 0 0 83
0 0 67 0 48 0 33 0 0 0 0 0
0 0 8 0 44 0 0 0 65 0 0
0 0 0 0 0 23 0 0 0 0
0 69 0 0 95 0 0 0 0
0 0 0 0 79 45 0 0
0 0 20 99 0 0 0
0 0 13 73 0 0
0 41 0 0 0
0 20 37 0
0 0 0
0 0
0
0 10 0 0 0 85 0 97 0 90 0 0 0 0 0 0 0
0 96 0 0 10 0 83 0 0 36 0 0 17 0 0 0
0 0 0 0 15 0 0 39 0 0 0 0 0 0 0
0 0 0 69 0 67 59 0 0 0 0 0 46 0
0 0 0 0 16 0 0 10 10 0 0 90 0
0 0 29 0 24 0 17 0 0 0 0 0
0 8 0 0 93 67 98 0 0 0 0
0 35 0 0 0 0 0 30 0 0
0 0 0 12 0 0 84 0 100
0 0 0 0 0 0 0 0
0 32 0 0 0 0 0
0 0 0 0 5 0
0 0 0 0 0
0 67 0 0
0 0 0
0 0
0
0 0 0 0 0 0 0 0 0 84 0 17 0 14 58 0
0 0 0 0 0 0 0 0 21 52 0 0 0 0 67
0 0 22 0 0 0 0 0 7 0 0 0 91 0
0 7 4 0 0 0 0 0 0 0 0 91 0
0 0 0 0 0 0 0 0 50 23 0 0
0 0 24 0 0 0 98 0 0 57 68
0 0 0 0 99 0 0 0 0 0
0 0 0 86 80 0 0 0 0
0 0 0 0 69 0 0 0
0 16 0 0 0 0 61
0 51 0 0 0 0
0 0 0 0 0
0 0 0 0
0 70 0
0 0
0
0 0 0 0 0 0 0 0 0 0 0 0 53 9 0
0 86 0 0 0 0 0 0 80 0 0 0 81 0
0 0 0 0 79 0 41 0 24 0 0 0 83
0 0 0 0 15 0 0 0 0 0 0 0
0 0 0 43 0 0 84 11 0 0 0
0 0 27 82 0 0 0 78 0 79
0 0 0 5 0 0 0 0 92
0 0 14 0 97 0 0 0
0 0 0 0 0 0 0
0 0 0 0 0 0
0 0 0 0 55
0 62 0 0
0 4 0
0 42
0
0 43 0 0 52 0 0 0 0 0 0 0 0 0
0 0 0 18 0 33 31 0 0 99 0 0 0
0 0 0 0 36 84 0 0 9 0 0 91
0 0 0 0 61 0 0 0 0 0 0
0 0 63 0 0 0 0 5 0 0
0 0 0 88 0 0 0 88 0
0 0 55 0 0 0 17 0
0 0 0 84 0 0 88
0 0 0 0 0 0
0 11 0 0 0
0 0 0 0
0 0 14
0 0
0
0 0 0 0 98 0 0 0 0 0 0 0 68
0 0 0 0 0 0 0 0 0 0 0 0
0 90 55 0 0 19 0 0 0 0 0
0 0 0 0 0 0 0 0 23 0
0 0 0 0 83 0 0 0 0
0 0 0 0 0 34 0 0
0 0 0 18 0 0 0
0 0 0 0 0 0
0 0 0 0 0
0 0 0 0
0 0 0
0 0
0
0 0 76 54 0 0 0 0 92 0 0 0
0 89 0 0 84 0 8 0 0 0 73
0 0 0 0 0 0 0 0 0 0
0 0 0 0 0 0 50 0 0
0 0 0 0 51 0 0 41
0 0 0 0 0 0 0
0 0 54 0 0 0
0 0 0 0 83
0 0 66 0
0 0 99
0 45
0
0 0 0 0 63 0 0 0 29 0 0
0 0 0 0 0 0 0 73 0 0
0 0 0 92 75 0 0 0 0
0 0 0 0 0 0 91 0
0 79 0 0 46 0 0
0 0 59 0 0 4
0 0 0 0 0
0 0 0 0
0 28 0
0 41
0
0 0 0 0 0 7 28 52 0 97
0 63 0 0 0 0 0 0 0
0 95 0 0 0 0 100 0
0 0 57 0 0 0 0
0 0 0 0 0 0
0 0 0 0 0
0 0 0 81
0 0 0
0 0
0
0 0 0 0 0 0 0 0 0
0 0 0 0 69 0 0 0
0 45 13 0 0 0 0
0 0 0 0 86 0
0 20 0 0 0
0 0 0 0
0 88 0
0 0
0
0 0 0 19 0 0 0 81
0 0 0 0 0 57 0
0 0 0 0 7 0
0 25 0 0 0
0 0 80 25
0 0 0
0 0
0
0 52 20 0 0 0 0
0 73 0 4 0 98
0 0 0 0 0
0 64 2 0
0 0 0
0 0
0
0 0 0 0 0 0
0 14 0 55 0
0 0 0 0
0 0 15
0 0
0
0 0 9 29 0
0 0 70 0
0 57 0
0 0
0
0 0 99 45
0 0 59
0 57
0
0 0 0
0 0
0
0 0
0
0
4866 4947 6034 4534 5561 5283 4872 5215 4993 5404 4380 5837 4677 5845 5236 5178 5078 4927 5662 4873 4662 5286 4517 5301 4579 4551 5657 4710 5263 5928
285.2081339712919 477.03214285714284 287.98636363636365 556.4454545454545 562.7202380952381 189.49891304347824 97.44 204.58846153846153 172.55629877369006 217.26608187134502 241.6891891891892 508.13169642857144 174.75203804347825 200.05208333333331 1683.0 949.3 417.9099378881988 230.70873015873016 427.79555555555555 761.40625 172.27995520716686 177.16813186813187 526.9833333333333 1009.7142857142857 180.38484848484848 107.28782894736841 244.1264880952381 151.39285714285717 307.68307692307695 1052.4347826086957
